
;this file is automatically generated: Thu Sep 01 14:31:23 IST 2016

;declarations generated

(declare-fun oclExcludes ( Int Int) Bool )
(declare-fun type_d44fd968_04a8_49e0_a963_b77ad6820125_C ( Int) Bool )
(declare-fun oclSelect ( Int Bool) Int )
(declare-fun type_83882a6e_4d3b_4cdb_aae7_8e3aa535a3e9_A ( Int) Bool )
(declare-fun Cardinality ( Int) Int )
(declare-fun obj_85e09da4_7923_469a_b7c0_16121b59d9da ( Int) Int )
(declare-fun container_ ( Int) Int )
(declare-fun type_bb6d7d4a_37f7_40fd_a4b7_0dea10494b4c_B ( Int) Bool )
(declare-fun type_3b421a93_677f_4a95_b546_db217504cedf_D ( Int) Bool )
(declare-fun oclIncludes ( Int Int) Bool )
(declare-fun aux1 () Int )
(declare-fun aux0 () Int )
(declare-fun aux3 () Int )
(declare-fun aux2 () Int )
(declare-fun aux4 () Int )
(declare-fun weight4 () Int )
(declare-fun weight3 () Int )
(declare-fun ObjAt ( Int Int) Int )
(declare-fun weight2 () Int )
(declare-fun weight1 () Int )
(declare-fun weight0 () Int )

;formula(s) generated
(assert (and (>= aux0 0) (<= aux0 1)))
(assert (or (or (forall ((b Int)) (=> (and ( type_bb6d7d4a_37f7_40fd_a4b7_0dea10494b4c_B b )  ( type_83882a6e_4d3b_4cdb_aae7_8e3aa535a3e9_A b ) ) (forall ((c Int)) (=> (and ( type_d44fd968_04a8_49e0_a963_b77ad6820125_C c )  ( type_83882a6e_4d3b_4cdb_aae7_8e3aa535a3e9_A c ) ) (not (= ( obj_85e09da4_7923_469a_b7c0_16121b59d9da b )  ( obj_85e09da4_7923_469a_b7c0_16121b59d9da c ) ) ))))) (and (= aux0 1) true)) (and (= aux0 0) false)))
(assert (and (=> (= aux0 0) (= weight0 1)) (=> (= aux0 1) (= weight0 0))))
(assert (and (>= aux1 0) (<= aux1 1)))
(assert (and (>= aux2 0) (<= aux2 1)))
(assert (and (>= aux3 0) (<= aux3 1)))
(assert (and (>= aux4 0) (<= aux4 1)))
(assert (or (or (exists ((p Int)) ( type_83882a6e_4d3b_4cdb_aae7_8e3aa535a3e9_A ( obj_85e09da4_7923_469a_b7c0_16121b59d9da p )  ) ) (and (= aux1 1) true)) (and (= aux1 0) false)))
(assert (and (=> (= aux1 0) (= weight1 1)) (=> (= aux1 1) (= weight1 0))))
(assert (or (or (exists ((p Int)) (and ( type_bb6d7d4a_37f7_40fd_a4b7_0dea10494b4c_B ( obj_85e09da4_7923_469a_b7c0_16121b59d9da p )  )  ( type_83882a6e_4d3b_4cdb_aae7_8e3aa535a3e9_A ( obj_85e09da4_7923_469a_b7c0_16121b59d9da p )  ) )) (and (= aux2 1) true)) (and (= aux2 0) false)))
(assert (and (=> (= aux2 0) (= weight2 1)) (=> (= aux2 1) (= weight2 0))))
(assert (or (or (exists ((p Int)) (and ( type_d44fd968_04a8_49e0_a963_b77ad6820125_C ( obj_85e09da4_7923_469a_b7c0_16121b59d9da p )  )  ( type_83882a6e_4d3b_4cdb_aae7_8e3aa535a3e9_A ( obj_85e09da4_7923_469a_b7c0_16121b59d9da p )  ) )) (and (= aux3 1) true)) (and (= aux3 0) false)))
(assert (and (=> (= aux3 0) (= weight3 1)) (=> (= aux3 1) (= weight3 0))))
(assert (or (or (exists ((p Int)) (and (and (and ( type_3b421a93_677f_4a95_b546_db217504cedf_D ( obj_85e09da4_7923_469a_b7c0_16121b59d9da p )  )  ( type_83882a6e_4d3b_4cdb_aae7_8e3aa535a3e9_A ( obj_85e09da4_7923_469a_b7c0_16121b59d9da p )  ) ) ( type_bb6d7d4a_37f7_40fd_a4b7_0dea10494b4c_B ( obj_85e09da4_7923_469a_b7c0_16121b59d9da p )  ) ) ( type_d44fd968_04a8_49e0_a963_b77ad6820125_C ( obj_85e09da4_7923_469a_b7c0_16121b59d9da p )  ) )) (and (= aux4 1) true)) (and (= aux4 0) false)))
(assert (and (=> (= aux4 0) (= weight4 1)) (=> (= aux4 1) (= weight4 0))))
(assert (= (+ (+ (+ (+ weight0 weight1) weight2) weight3) weight4) 4))
(assert (not (and (and (and (and (= weight0 1) (= weight1 1)) (= weight2 1)) (= weight3 1)) (= weight4 0)) ))
(assert (not (and (and (and (and (= weight0 0) (= weight1 1)) (= weight2 1)) (= weight3 1)) (= weight4 1)) ))
